
Gurobi 13.0.1 (win64, gurobi_cl) logging started Sat Jan 24 00:14:51 2026

Set parameter LogFile to value "gurobi.log"

Gurobi 13.0.1 (win64, gurobi_cl) logging started Sat Jan 24 00:15:04 2026

Set parameter LogFile to value "gurobi.log"
